
******************************************************************************
This program contains Ipopt, a library for large-scale nonlinear optimization.
 Ipopt is released as open source code under the Eclipse Public License (EPL).
         For more information visit http://projects.coin-or.org/Ipopt

This version of Ipopt was compiled from source code available at
    https://github.com/IDAES/Ipopt as part of the Institute for the Design of
    Advanced Energy Systems Process Systems Engineering Framework (IDAES PSE
    Framework) Copyright (c) 2018-2019. See https://github.com/IDAES/idaes-pse.

This version of Ipopt was compiled using HSL, a collection of Fortran codes
    for large-scale scientific computation.  All technical papers, sales and
    publicity material resulting from use of the HSL codes within IPOPT must
    contain the following acknowledgement:
        HSL, a collection of Fortran codes for large-scale scientific
        computation. See http://www.hsl.rl.ac.uk.
******************************************************************************

This is Ipopt version 3.13.2, running with linear solver ma27.

Number of nonzeros in equality constraint Jacobian...:      928
Number of nonzeros in inequality constraint Jacobian.:        0
Number of nonzeros in Lagrangian Hessian.............:      806

Total number of variables............................:      403
                     variables with only lower bounds:      124
                variables with lower and upper bounds:      217
                     variables with only upper bounds:        0
Total number of equality constraints.................:      402
Total number of inequality constraints...............:        0
        inequality constraints with only lower bounds:        0
   inequality constraints with lower and upper bounds:        0
        inequality constraints with only upper bounds:        0

iter    objective    inf_pr   inf_du lg(mu)  ||d||  lg(rg) alpha_du alpha_pr  ls
   0  0.0000000e+00 1.39e+00 4.00e-15  -1.0 0.00e+00    -  0.00e+00 0.00e+00   0
   1  4.6288944e-02 1.06e+00 5.90e+03  -1.0 7.76e+04    -  5.04e-01 2.51e-01h  2
   2  1.6523623e-01 7.57e-01 2.59e+04  -1.0 5.20e+04    -  5.90e-01 3.04e-01h  1
   3  1.7131262e-01 7.47e-01 2.56e+04  -1.0 1.72e+05    -  5.90e-01 1.33e-02h  1
   4  1.5964076e+00 5.51e-01 1.80e+04  -1.0 2.23e+05    -  6.07e-01 2.90e-01h  1
   5  1.7178184e+01 1.17e-01 9.98e+02  -1.0 1.72e+05    -  7.61e-01 9.90e-01h  1
   6  1.9794754e+01 7.38e-03 5.80e+01  -1.0 1.78e+04    -  9.70e-01 9.90e-01h  1
   7  1.9849823e+01 1.01e-04 1.23e+04  -1.0 3.61e+02    -  9.45e-01 9.90e-01h  1
   8  1.9879653e+01 9.46e-05 1.76e+07  -1.0 3.20e+03    -  7.04e-01 6.19e-02f  5
   9  2.0128447e+01 6.75e-06 1.66e+07  -1.0 1.66e+03    -  4.14e-01 9.90e-01H  1
iter    objective    inf_pr   inf_du lg(mu)  ||d||  lg(rg) alpha_du alpha_pr  ls
  10  2.0807015e+01 6.31e-06 1.02e+05  -1.0 4.47e+03    -  9.90e-01 9.90e-01H  1
  11  1.9845082e+01 9.17e-04 2.50e+09  -2.5 9.09e+03    -  9.97e-01 6.94e-01f  1
  12  1.9848277e+01 4.44e-06 8.35e+07  -2.5 2.23e+01    -  1.00e+00 9.97e-01h  1
  13  1.9847998e+01 1.23e-08 2.70e+10  -2.5 1.86e+00    -  1.00e+00 9.97e-01h  1
In iteration 13, 31 Slacks too small, adjusting variable bounds
  14  1.9847997e+01 3.50e-11 9.55e+12  -2.5 6.70e-03    -  1.00e+00 9.97e-01h  1
  15  1.9847997e+01 4.93e-12 8.98e-02  -2.5 1.89e-05    -  1.00e+00 1.00e+00h  1
  16  1.9847903e+01 1.39e-11 9.34e+12  -9.0 2.11e+01    -  1.00e+00 2.95e-02f  6
  17  1.9844999e+01 8.52e-12 2.72e+09  -9.0 1.93e+01    -  1.00e+00 1.00e+00F  1
  18  1.9844999e+01 1.84e-12 5.86e-07  -9.0 6.10e-06    -  1.00e+00 1.00e+00h  1

Number of Iterations....: 18

                                   (scaled)                 (unscaled)
Objective...............:   1.9844998623056263e+01    1.9844998623056263e+01
Dual infeasibility......:   5.8626756072044373e-07    5.8626756072044373e-07
Constraint violation....:   1.8443024885073100e-12    1.8443024885073100e-12
Complementarity.........:   9.0909184458063862e-10    9.0909184458063862e-10
Overall NLP error.......:   2.9442280120652002e-10    5.8626756072044373e-07


Number of objective function evaluations             = 41
Number of objective gradient evaluations             = 19
Number of equality constraint evaluations            = 41
Number of inequality constraint evaluations          = 0
Number of equality constraint Jacobian evaluations   = 19
Number of inequality constraint Jacobian evaluations = 0
Number of Lagrangian Hessian evaluations             = 18
Total CPU secs in IPOPT (w/o function evaluations)   =      0.039
Total CPU secs in NLP function evaluations           =      0.510

EXIT: Optimal Solution Found.
